784 1512
1 2 4
1 29 1
2 3 2
2 30 1
3 4 3
3 31 2
4 5 4
4 32 1
5 6 4
5 33 1
6 7 3
6 34 2
7 8 4
7 35 2
8 9 4
8 36 4
9 10 1
9 37 1
10 11 3
10 38 2
11 12 4
11 39 4
12 13 2
12 40 2
13 14 2
13 41 4
14 15 3
14 42 4
15 16 1
15 43 4
16 17 3
16 44 3
17 18 1
17 45 3
18 19 3
18 46 3
19 20 3
19 47 5
20 21 2
20 48 2
21 22 1
21 49 3
22 23 1
22 50 5
23 24 3
23 51 4
24 25 2
24 52 5
25 26 3
25 53 5
26 27 1
26 54 4
27 28 1
27 55 3
28 56 2
29 30 3
29 57 1
30 31 3
30 58 2
31 32 4
31 59 2
32 33 4
32 60 1
33 34 2
33 61 4
34 35 5
34 62 3
35 36 5
35 63 4
36 37 2
36 64 1
37 38 3
37 65 1
38 39 2
38 66 2
39 40 5
39 67 1
40 41 5
40 68 3
41 42 2
41 69 4
42 43 1
42 70 1
43 44 3
43 71 5
44 45 3
44 72 4
45 46 2
45 73 1
46 47 3
46 74 5
47 48 1
47 75 2
48 49 3
48 76 1
49 50 1
49 77 3
50 51 3
50 78 3
51 52 4
51 79 1
52 53 4
52 80 4
53 54 5
53 81 2
54 55 4
54 82 3
55 56 3
55 83 2
56 84 5
57 58 3
57 85 1
58 59 2
58 86 1
59 60 3
59 87 5
60 61 4
60 88 2
61 62 3
61 89 3
62 63 2
62 90 4
63 64 4
63 91 1
64 65 3
64 92 4
65 66 3
65 93 2
66 67 1
66 94 1
67 68 2
67 95 4
68 69 4
68 96 5
69 70 5
69 97 4
70 71 1
70 98 3
71 72 2
71 99 2
72 73 5
72 100 2
73 74 1
73 101 4
74 75 3
74 102 2
75 76 2
75 103 1
76 77 3
76 104 3
77 78 3
77 105 1
78 79 4
78 106 1
79 80 5
79 107 2
80 81 1
80 108 2
81 82 1
81 109 3
82 83 5
82 110 1
83 84 4
83 111 1
84 112 2
85 86 2
85 113 3
86 87 3
86 114 2
87 88 3
87 115 4
88 89 4
88 116 1
89 90 4
89 117 3
90 91 2
90 118 5
91 92 2
91 119 2
92 93 2
92 120 3
93 94 3
93 121 5
94 95 3
94 122 5
95 96 3
95 123 2
96 97 1
96 124 4
97 98 5
97 125 3
98 99 2
98 126 4
99 100 4
99 127 2
100 101 4
100 128 5
101 102 5
101 129 4
102 103 2
102 130 4
103 104 3
103 131 1
104 105 5
104 132 1
105 106 1
105 133 4
106 107 3
106 134 5
107 108 3
107 135 5
108 109 5
108 136 5
109 110 4
109 137 5
110 111 5
110 138 3
111 112 5
111 139 1
112 140 2
113 114 1
113 141 3
114 115 2
114 142 2
115 116 3
115 143 1
116 117 2
116 144 5
117 118 3
117 145 3
118 119 5
118 146 1
119 120 2
119 147 2
120 121 4
120 148 4
121 122 1
121 149 3
122 123 1
122 150 4
123 124 4
123 151 1
124 125 4
124 152 5
125 126 5
125 153 3
126 127 5
126 154 1
127 128 4
127 155 1
128 129 2
128 156 3
129 130 3
129 157 3
130 131 5
130 158 2
131 132 1
131 159 3
132 133 1
132 160 5
133 134 5
133 161 3
134 135 2
134 162 3
135 136 3
135 163 2
136 137 1
136 164 1
137 138 2
137 165 4
138 139 3
138 166 4
139 140 3
139 167 2
140 168 3
141 142 2
141 169 3
142 143 4
142 170 5
143 144 1
143 171 1
144 145 3
144 172 4
145 146 1
145 173 4
146 147 1
146 174 2
147 148 2
147 175 5
148 149 4
148 176 1
149 150 3
149 177 2
150 151 1
150 178 3
151 152 2
151 179 2
152 153 4
152 180 4
153 154 5
153 181 1
154 155 1
154 182 1
155 156 3
155 183 3
156 157 2
156 184 1
157 158 2
157 185 3
158 159 1
158 186 3
159 160 2
159 187 3
160 161 1
160 188 4
161 162 4
161 189 1
162 163 1
162 190 2
163 164 5
163 191 4
164 165 3
164 192 4
165 166 4
165 193 1
166 167 3
166 194 2
167 168 1
167 195 3
168 196 1
169 170 3
169 197 5
170 171 5
170 198 1
171 172 2
171 199 4
172 173 4
172 200 4
173 174 5
173 201 5
174 175 2
174 202 3
175 176 4
175 203 3
176 177 5
176 204 2
177 178 5
177 205 2
178 179 3
178 206 1
179 180 2
179 207 1
180 181 5
180 208 4
181 182 5
181 209 4
182 183 2
182 210 2
183 184 1
183 211 3
184 185 1
184 212 3
185 186 5
185 213 1
186 187 3
186 214 3
187 188 5
187 215 3
188 189 4
188 216 1
189 190 4
189 217 1
190 191 4
190 218 4
191 192 3
191 219 4
192 193 1
192 220 4
193 194 2
193 221 1
194 195 3
194 222 5
195 196 3
195 223 1
196 224 2
197 198 4
197 225 1
198 199 4
198 226 2
199 200 3
199 227 1
200 201 2
200 228 4
201 202 4
201 229 4
202 203 5
202 230 5
203 204 4
203 231 5
204 205 2
204 232 3
205 206 4
205 233 3
206 207 2
206 234 4
207 208 4
207 235 5
208 209 2
208 236 3
209 210 2
209 237 3
210 211 2
210 238 3
211 212 4
211 239 2
212 213 5
212 240 4
213 214 1
213 241 2
214 215 3
214 242 4
215 216 4
215 243 5
216 217 1
216 244 5
217 218 3
217 245 4
218 219 2
218 246 4
219 220 2
219 247 3
220 221 4
220 248 3
221 222 5
221 249 2
222 223 5
222 250 2
223 224 3
223 251 5
224 252 5
225 226 3
225 253 5
226 227 2
226 254 4
227 228 4
227 255 1
228 229 2
228 256 1
229 230 3
229 257 4
230 231 5
230 258 1
231 232 4
231 259 2
232 233 5
232 260 1
233 234 1
233 261 3
234 235 3
234 262 3
235 236 5
235 263 1
236 237 5
236 264 4
237 238 2
237 265 5
238 239 2
238 266 1
239 240 5
239 267 1
240 241 1
240 268 1
241 242 3
241 269 3
242 243 4
242 270 1
243 244 3
243 271 3
244 245 5
244 272 4
245 246 2
245 273 2
246 247 5
246 274 1
247 248 2
247 275 5
248 249 4
248 276 4
249 250 1
249 277 3
250 251 5
250 278 5
251 252 2
251 279 1
252 280 2
253 254 3
253 281 5
254 255 3
254 282 5
255 256 5
255 283 2
256 257 4
256 284 5
257 258 2
257 285 2
258 259 1
258 286 2
259 260 1
259 287 1
260 261 4
260 288 1
261 262 1
261 289 5
262 263 5
262 290 4
263 264 4
263 291 3
264 265 4
264 292 3
265 266 4
265 293 2
266 267 1
266 294 2
267 268 2
267 295 2
268 269 5
268 296 5
269 270 1
269 297 4
270 271 3
270 298 1
271 272 2
271 299 2
272 273 4
272 300 3
273 274 2
273 301 2
274 275 1
274 302 2
275 276 4
275 303 4
276 277 2
276 304 3
277 278 3
277 305 5
278 279 2
278 306 5
279 280 1
279 307 1
280 308 5
281 282 1
281 309 3
282 283 4
282 310 5
283 284 3
283 311 3
284 285 1
284 312 2
285 286 4
285 313 1
286 287 1
286 314 2
287 288 5
287 315 4
288 289 5
288 316 3
289 290 2
289 317 1
290 291 1
290 318 5
291 292 2
291 319 1
292 293 3
292 320 4
293 294 2
293 321 5
294 295 1
294 322 4
295 296 3
295 323 3
296 297 4
296 324 2
297 298 2
297 325 4
298 299 4
298 326 2
299 300 4
299 327 4
300 301 1
300 328 3
301 302 2
301 329 5
302 303 4
302 330 3
303 304 1
303 331 4
304 305 3
304 332 2
305 306 3
305 333 3
306 307 1
306 334 2
307 308 2
307 335 2
308 336 5
309 310 3
309 337 3
310 311 4
310 338 5
311 312 5
311 339 4
312 313 4
312 340 2
313 314 4
313 341 2
314 315 2
314 342 3
315 316 5
315 343 2
316 317 2
316 344 1
317 318 4
317 345 5
318 319 4
318 346 2
319 320 3
319 347 5
320 321 1
320 348 2
321 322 5
321 349 4
322 323 2
322 350 4
323 324 1
323 351 1
324 325 1
324 352 1
325 326 4
325 353 4
326 327 3
326 354 4
327 328 5
327 355 4
328 329 1
328 356 1
329 330 4
329 357 4
330 331 4
330 358 3
331 332 2
331 359 3
332 333 2
332 360 3
333 334 3
333 361 5
334 335 2
334 362 5
335 336 4
335 363 5
336 364 2
337 338 3
337 365 2
338 339 3
338 366 5
339 340 1
339 367 3
340 341 5
340 368 1
341 342 5
341 369 4
342 343 4
342 370 1
343 344 4
343 371 3
344 345 4
344 372 3
345 346 3
345 373 2
346 347 2
346 374 3
347 348 4
347 375 5
348 349 3
348 376 5
349 350 4
349 377 5
350 351 5
350 378 1
351 352 1
351 379 1
352 353 4
352 380 3
353 354 2
353 381 2
354 355 4
354 382 4
355 356 3
355 383 2
356 357 5
356 384 4
357 358 2
357 385 4
358 359 4
358 386 1
359 360 4
359 387 2
360 361 3
360 388 1
361 362 2
361 389 5
362 363 3
362 390 3
363 364 2
363 391 1
364 392 5
365 366 5
365 393 1
366 367 5
366 394 2
367 368 4
367 395 2
368 369 5
368 396 4
369 370 4
369 397 1
370 371 1
370 398 4
371 372 2
371 399 2
372 373 4
372 400 3
373 374 4
373 401 4
374 375 1
374 402 1
375 376 4
375 403 1
376 377 2
376 404 5
377 378 1
377 405 4
378 379 4
378 406 3
379 380 1
379 407 2
380 381 2
380 408 2
381 382 2
381 409 3
382 383 5
382 410 1
383 384 5
383 411 3
384 385 2
384 412 5
385 386 4
385 413 4
386 387 2
386 414 2
387 388 1
387 415 4
388 389 5
388 416 1
389 390 3
389 417 3
390 391 5
390 418 1
391 392 1
391 419 4
392 420 2
393 394 4
393 421 3
394 395 5
394 422 3
395 396 1
395 423 1
396 397 1
396 424 3
397 398 2
397 425 5
398 399 3
398 426 1
399 400 2
399 427 3
400 401 1
400 428 2
401 402 2
401 429 5
402 403 2
402 430 5
403 404 5
403 431 1
404 405 4
404 432 4
405 406 5
405 433 5
406 407 1
406 434 5
407 408 3
407 435 2
408 409 4
408 436 5
409 410 3
409 437 3
410 411 3
410 438 4
411 412 4
411 439 3
412 413 1
412 440 1
413 414 3
413 441 2
414 415 1
414 442 4
415 416 4
415 443 1
416 417 4
416 444 2
417 418 3
417 445 2
418 419 4
418 446 1
419 420 2
419 447 5
420 448 4
421 422 3
421 449 2
422 423 2
422 450 1
423 424 1
423 451 5
424 425 4
424 452 4
425 426 3
425 453 1
426 427 5
426 454 4
427 428 4
427 455 5
428 429 3
428 456 5
429 430 1
429 457 4
430 431 3
430 458 5
431 432 4
431 459 3
432 433 1
432 460 1
433 434 5
433 461 2
434 435 1
434 462 5
435 436 3
435 463 1
436 437 2
436 464 1
437 438 5
437 465 2
438 439 5
438 466 5
439 440 4
439 467 1
440 441 4
440 468 3
441 442 2
441 469 2
442 443 5
442 470 1
443 444 4
443 471 2
444 445 3
444 472 4
445 446 1
445 473 5
446 447 4
446 474 4
447 448 4
447 475 4
448 476 3
449 450 5
449 477 3
450 451 3
450 478 4
451 452 3
451 479 2
452 453 3
452 480 3
453 454 1
453 481 4
454 455 4
454 482 2
455 456 1
455 483 3
456 457 2
456 484 5
457 458 5
457 485 2
458 459 1
458 486 5
459 460 2
459 487 4
460 461 4
460 488 1
461 462 1
461 489 1
462 463 3
462 490 4
463 464 4
463 491 3
464 465 5
464 492 5
465 466 3
465 493 3
466 467 5
466 494 5
467 468 2
467 495 3
468 469 1
468 496 5
469 470 4
469 497 1
470 471 1
470 498 2
471 472 4
471 499 2
472 473 2
472 500 4
473 474 5
473 501 1
474 475 2
474 502 2
475 476 2
475 503 2
476 504 1
477 478 1
477 505 4
478 479 4
478 506 5
479 480 4
479 507 4
480 481 5
480 508 4
481 482 1
481 509 2
482 483 3
482 510 5
483 484 1
483 511 4
484 485 5
484 512 5
485 486 1
485 513 2
486 487 1
486 514 1
487 488 4
487 515 1
488 489 3
488 516 2
489 490 4
489 517 4
490 491 2
490 518 4
491 492 5
491 519 5
492 493 3
492 520 5
493 494 4
493 521 4
494 495 1
494 522 5
495 496 5
495 523 4
496 497 4
496 524 4
497 498 5
497 525 4
498 499 4
498 526 5
499 500 2
499 527 1
500 501 2
500 528 3
501 502 4
501 529 3
502 503 2
502 530 3
503 504 1
503 531 2
504 532 4
505 506 4
505 533 4
506 507 2
506 534 2
507 508 1
507 535 2
508 509 5
508 536 2
509 510 4
509 537 1
510 511 5
510 538 1
511 512 3
511 539 1
512 513 2
512 540 1
513 514 4
513 541 1
514 515 2
514 542 4
515 516 1
515 543 3
516 517 5
516 544 2
517 518 3
517 545 2
518 519 3
518 546 3
519 520 4
519 547 5
520 521 5
520 548 1
521 522 1
521 549 3
522 523 5
522 550 2
523 524 3
523 551 3
524 525 1
524 552 5
525 526 2
525 553 4
526 527 5
526 554 3
527 528 2
527 555 5
528 529 3
528 556 4
529 530 1
529 557 4
530 531 2
530 558 4
531 532 1
531 559 2
532 560 3
533 534 1
533 561 1
534 535 4
534 562 5
535 536 2
535 563 5
536 537 2
536 564 2
537 538 5
537 565 3
538 539 4
538 566 1
539 540 3
539 567 1
540 541 4
540 568 1
541 542 2
541 569 5
542 543 4
542 570 2
543 544 1
543 571 1
544 545 1
544 572 2
545 546 1
545 573 1
546 547 2
546 574 5
547 548 3
547 575 4
548 549 4
548 576 1
549 550 3
549 577 1
550 551 2
550 578 2
551 552 3
551 579 4
552 553 3
552 580 3
553 554 1
553 581 5
554 555 5
554 582 2
555 556 4
555 583 1
556 557 3
556 584 1
557 558 1
557 585 2
558 559 5
558 586 2
559 560 2
559 587 3
560 588 1
561 562 4
561 589 1
562 563 3
562 590 5
563 564 2
563 591 4
564 565 5
564 592 1
565 566 2
565 593 3
566 567 5
566 594 5
567 568 3
567 595 5
568 569 1
568 596 4
569 570 1
569 597 2
570 571 5
570 598 4
571 572 3
571 599 1
572 573 5
572 600 5
573 574 1
573 601 5
574 575 5
574 602 5
575 576 2
575 603 2
576 577 4
576 604 5
577 578 4
577 605 2
578 579 2
578 606 5
579 580 5
579 607 1
580 581 3
580 608 4
581 582 3
581 609 3
582 583 2
582 610 3
583 584 2
583 611 2
584 585 4
584 612 1
585 586 5
585 613 1
586 587 3
586 614 2
587 588 3
587 615 4
588 616 4
589 590 5
589 617 4
590 591 5
590 618 2
591 592 4
591 619 4
592 593 5
592 620 2
593 594 2
593 621 1
594 595 5
594 622 3
595 596 4
595 623 4
596 597 3
596 624 1
597 598 5
597 625 1
598 599 2
598 626 2
599 600 4
599 627 1
600 601 5
600 628 1
601 602 5
601 629 3
602 603 1
602 630 2
603 604 3
603 631 5
604 605 3
604 632 4
605 606 1
605 633 3
606 607 3
606 634 3
607 608 4
607 635 4
608 609 3
608 636 5
609 610 3
609 637 1
610 611 1
610 638 1
611 612 1
611 639 2
612 613 3
612 640 4
613 614 3
613 641 4
614 615 3
614 642 4
615 616 4
615 643 4
616 644 5
617 618 4
617 645 3
618 619 5
618 646 4
619 620 5
619 647 3
620 621 2
620 648 2
621 622 1
621 649 5
622 623 5
622 650 1
623 624 1
623 651 3
624 625 5
624 652 2
625 626 4
625 653 5
626 627 3
626 654 4
627 628 2
627 655 1
628 629 1
628 656 2
629 630 3
629 657 2
630 631 5
630 658 3
631 632 2
631 659 1
632 633 3
632 660 5
633 634 2
633 661 4
634 635 3
634 662 5
635 636 4
635 663 3
636 637 5
636 664 1
637 638 2
637 665 4
638 639 2
638 666 5
639 640 5
639 667 5
640 641 5
640 668 3
641 642 3
641 669 3
642 643 3
642 670 1
643 644 2
643 671 1
644 672 5
645 646 5
645 673 3
646 647 2
646 674 5
647 648 1
647 675 4
648 649 3
648 676 5
649 650 4
649 677 1
650 651 2
650 678 4
651 652 4
651 679 3
652 653 3
652 680 3
653 654 3
653 681 5
654 655 5
654 682 5
655 656 4
655 683 4
656 657 3
656 684 5
657 658 5
657 685 3
658 659 2
658 686 3
659 660 4
659 687 5
660 661 5
660 688 4
661 662 1
661 689 5
662 663 4
662 690 3
663 664 1
663 691 3
664 665 2
664 692 3
665 666 4
665 693 1
666 667 4
666 694 2
667 668 2
667 695 3
668 669 3
668 696 4
669 670 1
669 697 3
670 671 3
670 698 3
671 672 2
671 699 1
672 700 4
673 674 5
673 701 5
674 675 3
674 702 2
675 676 1
675 703 5
676 677 1
676 704 4
677 678 5
677 705 3
678 679 4
678 706 5
679 680 5
679 707 1
680 681 2
680 708 3
681 682 4
681 709 2
682 683 1
682 710 2
683 684 4
683 711 1
684 685 1
684 712 2
685 686 3
685 713 3
686 687 2
686 714 2
687 688 3
687 715 4
688 689 2
688 716 1
689 690 2
689 717 4
690 691 5
690 718 3
691 692 3
691 719 4
692 693 3
692 720 2
693 694 3
693 721 5
694 695 3
694 722 3
695 696 5
695 723 4
696 697 4
696 724 5
697 698 3
697 725 5
698 699 2
698 726 2
699 700 4
699 727 1
700 728 5
701 702 3
701 729 1
702 703 4
702 730 4
703 704 3
703 731 3
704 705 5
704 732 1
705 706 3
705 733 4
706 707 5
706 734 2
707 708 2
707 735 4
708 709 3
708 736 4
709 710 1
709 737 1
710 711 2
710 738 5
711 712 5
711 739 2
712 713 4
712 740 3
713 714 4
713 741 2
714 715 4
714 742 2
715 716 4
715 743 5
716 717 5
716 744 3
717 718 3
717 745 2
718 719 5
718 746 2
719 720 1
719 747 2
720 721 4
720 748 4
721 722 1
721 749 4
722 723 4
722 750 2
723 724 2
723 751 5
724 725 4
724 752 3
725 726 5
725 753 1
726 727 3
726 754 5
727 728 4
727 755 1
728 756 3
729 730 4
729 757 5
730 731 4
730 758 2
731 732 1
731 759 2
732 733 2
732 760 3
733 734 4
733 761 5
734 735 5
734 762 5
735 736 5
735 763 4
736 737 1
736 764 4
737 738 5
737 765 3
738 739 2
738 766 4
739 740 1
739 767 4
740 741 5
740 768 2
741 742 1
741 769 3
742 743 4
742 770 2
743 744 1
743 771 2
744 745 4
744 772 2
745 746 5
745 773 2
746 747 1
746 774 4
747 748 1
747 775 1
748 749 2
748 776 2
749 750 1
749 777 2
750 751 1
750 778 1
751 752 1
751 779 3
752 753 1
752 780 5
753 754 1
753 781 4
754 755 3
754 782 4
755 756 4
755 783 5
756 784 4
757 758 1
758 759 5
759 760 1
760 761 3
761 762 2
762 763 2
763 764 5
764 765 1
765 766 1
766 767 4
767 768 5
768 769 5
769 770 5
770 771 4
771 772 1
772 773 3
773 774 2
774 775 3
775 776 5
776 777 5
777 778 3
778 779 1
779 780 2
780 781 2
781 782 5
782 783 3
783 784 2
